0 9072 
1 8960 
2 8802 
3 8648 
4 8612 
5 8440 
6 8392 
7 8366 
8 8170 
9 8068 
10 8062 
11 7976 
12 7492 
13 7296 
14 6998 
15 6960 
16 6922 
17 6896 
18 6842 
19 6830 
20 6764 
21 6680 
22 6578 
23 6386 
24 6352 
25 6276 
26 6264 
27 6144 
28 5970 
29 5718 
30 5706 
31 5692 
32 5670 
33 5642 
34 5642 
35 5626 
36 5568 
37 5392 
38 5392 
39 5254 
40 4986 
41 4970 
42 4960 
43 4922 
44 4832 
45 4808 
46 4748 
47 4712 
48 4672 
49 4648 
50 4556 
51 4372 
52 4232 
53 4142 
54 4088 
55 4058 
56 3998 
57 3960 
58 3828 
59 3768 
60 3760 
61 3740 
62 3532 
63 3308 
64 3308 
65 2988 
66 2736 
67 2700 
68 2700 
69 2700 
70 2686 
71 2686 
72 2628 
73 2628 
74 2628 
75 2628 
76 2628 
77 2628 
78 2628 
79 2628 
80 2628 
81 2628 
82 2628 
83 2628 
84 2628 
85 2628 
86 2628 
87 2628 
88 2628 
89 2628 
90 2628 
91 2628 
92 2628 
93 2628 
94 2628 
95 2628 
96 2628 
97 2628 
98 2628 
99 2628 
100 2628 
101 2628 
102 2628 
103 2628 
104 2628 
105 2628 
106 2628 
107 2628 
108 2628 
109 2628 
110 2628 
111 2628 
112 2628 
113 2628 
114 2628 
115 2628 
116 2628 
117 2628 
118 2628 
119 2628 
120 2628 
121 2628 
122 2628 
123 2628 
124 2628 
125 2628 
126 2628 
127 2628 
128 2628 
129 2628 
130 2628 
131 2628 
132 2628 
133 2628 
134 2628 
135 2628 
136 2628 
137 2628 
138 2628 
139 2628 
140 2628 
141 2628 
142 2628 
143 2628 
144 2628 
145 2628 
146 2628 
147 2628 
148 2628 
149 2628 
150 2628 
151 2628 
152 2628 
153 2628 
154 2628 
155 2628 
156 2628 
157 2628 
158 2628 
159 2628 
160 2628 
161 2628 
162 2628 
163 2628 
164 2628 
165 2628 
166 2628 
167 2628 
168 2628 
169 2628 
170 2628 
171 2628 
172 2628 
173 2628 
174 2628 
175 2628 
176 2628 
177 2628 
178 2628 
179 2628 
180 2628 
181 2628 
182 2628 
183 2628 
184 2628 
185 2628 
186 2628 
187 2628 
188 2628 
189 2628 
190 2628 
191 2628 
192 2628 
193 2628 
194 2628 
195 2628 
196 2628 
197 2628 
198 2628 
199 2628 
200 2628 
201 2628 
202 2628 
203 2628 
204 2628 
205 2628 
206 2628 
207 2628 
208 2628 
209 2628 
210 2628 
211 2628 
212 2628 
213 2628 
214 2628 
215 2628 
216 2628 
217 2628 
218 2628 
219 2628 
220 2628 
221 2628 
222 2628 
223 2628 
224 2628 
225 2628 
226 2628 
227 2628 
228 2628 
229 2628 
230 2628 
231 2628 
232 2628 
233 2628 
234 2628 
235 2628 
236 2628 
237 2628 
238 2628 
239 2628 
240 2628 
241 2628 
242 2628 
243 2628 
244 2628 
245 2628 
246 2628 
247 2628 
248 2628 
249 2628 
250 2628 
251 2628 
252 2628 
253 2628 
254 2628 
255 2628 
256 2628 
257 2628 
258 2628 
259 2628 
260 2628 
261 2628 
262 2628 
263 2628 
264 2628 
265 2628 
266 2628 
267 2628 
268 2628 
269 2628 
270 2628 
271 2628 
272 2628 
273 2628 
274 2628 
275 2628 
276 2628 
277 2628 
278 2628 
279 2628 
280 2628 
281 2628 
282 2628 
283 2628 
284 2628 
285 2628 
286 2628 
287 2628 
288 2628 
289 2628 
290 2628 
291 2628 
292 2628 
293 2628 
294 2628 
295 2628 
296 2628 
297 2628 
298 2628 
299 2628 
300 2628 
301 2628 
302 2628 
303 2628 
304 2628 
305 2628 
306 2628 
307 2628 
308 2628 
309 2628 
310 2628 
311 2628 
312 2628 
313 2628 
314 2628 
315 2628 
316 2628 
317 2628 
318 2628 
319 2628 
320 2628 
321 2628 
322 2628 
323 2628 
324 2628 
325 2628 
326 2628 
327 2628 
328 2628 
329 2628 
330 2628 
331 2628 
332 2628 
333 2628 
334 2628 
335 2628 
336 2628 
337 2628 
338 2628 
339 2628 
340 2628 
341 2628 
342 2628 
343 2628 
344 2628 
345 2628 
346 2628 
347 2628 
348 2628 
349 2628 
350 2628 
351 2628 
352 2628 
353 2628 
354 2628 
355 2628 
356 2628 
357 2628 
358 2628 
359 2628 
360 2628 
361 2628 
362 2628 
363 2628 
364 2628 
365 2628 
366 2628 
367 2628 
368 2628 
369 2628 
370 2628 
371 2628 
372 2628 
373 2628 
374 2628 
375 2628 
376 2628 
377 2628 
378 2628 
379 2628 
380 2628 
381 2628 
382 2628 
383 2628 
384 2628 
385 2628 
386 2628 
387 2628 
388 2628 
389 2628 
390 2628 
391 2628 
392 2628 
393 2628 
394 2628 
395 2628 
396 2628 
397 2628 
398 2628 
399 2628 
400 2628 
401 2628 
402 2628 
403 2628 
404 2628 
405 2628 
406 2628 
407 2628 
408 2628 
409 2628 
410 2628 
411 2628 
412 2628 
413 2628 
414 2628 
415 2628 
416 2628 
417 2628 
418 2628 
419 2628 
420 2628 
421 2628 
422 2628 
423 2628 
424 2628 
425 2628 
426 2628 
427 2628 
428 2628 
429 2628 
430 2628 
431 2628 
432 2628 
433 2628 
434 2628 
435 2628 
436 2628 
437 2628 
438 2628 
439 2628 
440 2628 
441 2628 
442 2628 
443 2628 
444 2628 
445 2628 
446 2628 
447 2628 
448 2628 
449 2628 
450 2628 
451 2628 
452 2628 
453 2628 
454 2628 
455 2628 
456 2628 
457 2628 
458 2628 
459 2628 
460 2628 
461 2628 
462 2628 
463 2628 
464 2628 
465 2628 
466 2628 
467 2628 
468 2628 
469 2628 
470 2628 
471 2628 
472 2628 
473 2628 
474 2628 
475 2628 
476 2628 
477 2628 
478 2628 
479 2628 
480 2628 
481 2628 
482 2628 
483 2628 
484 2628 
485 2628 
486 2628 
487 2628 
488 2628 
489 2628 
490 2628 
491 2628 
492 2628 
493 2628 
494 2628 
495 2628 
496 2628 
497 2628 
498 2628 
499 2628 
500 2628 
501 2628 
502 2628 
503 2628 
504 2628 
505 2628 
506 2628 
507 2628 
508 2628 
509 2628 
510 2628 
511 2628 
512 2628 
513 2628 
514 2628 
515 2628 
516 2628 
517 2628 
518 2628 
519 2628 
520 2628 
521 2628 
522 2628 
523 2628 
524 2628 
525 2628 
526 2628 
527 2628 
528 2628 
529 2628 
530 2628 
531 2628 
532 2628 
533 2628 
534 2628 
535 2628 
536 2628 
537 2628 
538 2628 
539 2628 
540 2628 
541 2628 
542 2628 
543 2628 
544 2628 
545 2628 
546 2628 
547 2628 
548 2628 
549 2628 
550 2628 
551 2628 
552 2628 
553 2628 
554 2628 
555 2628 
556 2628 
557 2628 
558 2628 
559 2628 
560 2628 
561 2628 
562 2628 
563 2628 
564 2628 
565 2628 
566 2628 
567 2628 
568 2628 
569 2628 
570 2628 
571 2628 
572 2628 
573 2628 
574 2628 
575 2628 
576 2628 
577 2628 
578 2628 
579 2628 
580 2628 
581 2628 
582 2628 
583 2628 
584 2628 
585 2628 
586 2628 
587 2628 
588 2628 
589 2628 
590 2628 
591 2628 
592 2628 
593 2628 
594 2628 
595 2628 
596 2628 
597 2628 
598 2628 
599 2628 
600 2628 
601 2628 
602 2628 
603 2628 
604 2628 
605 2628 
606 2628 
607 2628 
608 2628 
609 2628 
610 2628 
611 2628 
612 2628 
613 2628 
614 2628 
615 2628 
616 2628 
617 2628 
618 2628 
619 2628 
620 2628 
621 2628 
622 2628 
623 2628 
624 2628 
625 2628 
626 2628 
627 2628 
628 2628 
629 2628 
630 2628 
631 2628 
632 2628 
633 2628 
634 2628 
635 2628 
636 2628 
637 2628 
638 2628 
639 2628 
640 2628 
641 2628 
642 2628 
643 2628 
644 2628 
645 2628 
646 2628 
647 2628 
648 2628 
649 2628 
650 2628 
651 2628 
652 2628 
653 2628 
654 2628 
655 2628 
656 2628 
657 2628 
658 2628 
659 2628 
660 2628 
661 2628 
662 2628 
663 2628 
664 2628 
665 2628 
666 2628 
667 2628 
668 2628 
669 2628 
670 2628 
671 2628 
672 2628 
673 2628 
674 2628 
675 2628 
676 2628 
677 2628 
678 2628 
679 2628 
680 2628 
681 2628 
682 2628 
683 2628 
684 2628 
685 2628 
686 2628 
687 2628 
688 2628 
689 2628 
690 2628 
691 2628 
692 2628 
693 2628 
694 2628 
695 2628 
696 2628 
697 2628 
698 2628 
699 2628 
700 2628 
701 2628 
702 2628 
703 2628 
704 2628 
705 2628 
706 2628 
707 2628 
708 2628 
709 2628 
710 2628 
711 2628 
712 2628 
713 2628 
714 2628 
715 2628 
716 2628 
717 2628 
718 2628 
719 2628 
720 2628 
721 2628 
722 2628 
723 2628 
724 2628 
725 2628 
726 2628 
727 2628 
728 2628 
729 2628 
730 2628 
731 2628 
732 2628 
733 2628 
734 2628 
735 2628 
736 2628 
737 2628 
738 2628 
739 2628 
740 2628 
741 2628 
742 2628 
743 2628 
744 2628 
745 2628 
746 2628 
747 2628 
748 2628 
749 2628 
750 2628 
751 2628 
752 2628 
753 2628 
754 2628 
755 2628 
756 2628 
757 2628 
758 2628 
759 2628 
760 2628 
761 2628 
762 2628 
763 2628 
764 2628 
765 2628 
766 2628 
767 2628 
768 2628 
769 2628 
770 2628 
771 2628 
772 2628 
773 2628 
774 2628 
775 2628 
776 2628 
777 2628 
778 2628 
779 2628 
780 2628 
781 2628 
782 2628 
783 2628 
784 2628 
785 2628 
786 2628 
787 2628 
788 2628 
789 2628 
790 2628 
791 2628 
792 2628 
793 2628 
794 2628 
795 2628 
796 2628 
797 2628 
798 2628 
799 2628 
800 2628 
801 2628 
802 2628 
803 2628 
804 2628 
805 2628 
806 2628 
807 2628 
808 2628 
809 2628 
810 2628 
811 2628 
812 2628 
813 2628 
814 2628 
815 2628 
816 2628 
817 2628 
818 2628 
819 2628 
820 2628 
821 2628 
822 2628 
823 2628 
824 2628 
825 2628 
826 2628 
827 2628 
828 2628 
829 2628 
830 2628 
831 2628 
832 2628 
833 2628 
834 2628 
835 2628 
836 2628 
837 2628 
838 2628 
839 2628 
840 2628 
841 2628 
842 2628 
843 2628 
844 2628 
845 2628 
846 2628 
847 2628 
848 2628 
849 2628 
850 2628 
851 2628 
852 2628 
853 2628 
854 2628 
855 2628 
856 2628 
857 2628 
858 2628 
859 2628 
860 2628 
861 2628 
862 2628 
863 2628 
864 2628 
865 2628 
866 2628 
867 2628 
868 2628 
869 2628 
870 2628 
871 2628 
872 2628 
873 2628 
874 2628 
875 2628 
876 2628 
877 2628 
878 2628 
879 2628 
880 2628 
881 2628 
882 2628 
883 2628 
884 2628 
885 2628 
886 2628 
887 2628 
888 2628 
889 2628 
890 2628 
891 2628 
892 2628 
893 2628 
894 2628 
895 2628 
896 2628 
897 2628 
898 2628 
899 2628 
900 2628 
901 2628 
902 2628 
903 2628 
904 2628 
905 2628 
906 2628 
907 2628 
908 2628 
909 2628 
910 2628 
911 2628 
912 2628 
913 2628 
914 2628 
915 2628 
916 2628 
917 2628 
918 2628 
919 2628 
920 2628 
921 2628 
922 2628 
923 2628 
924 2628 
925 2628 
926 2628 
927 2628 
928 2628 
929 2628 
930 2628 
931 2628 
932 2628 
933 2628 
934 2628 
935 2628 
936 2628 
937 2628 
938 2628 
939 2628 
940 2628 
941 2628 
942 2628 
943 2628 
944 2628 
945 2628 
946 2628 
947 2628 
948 2628 
949 2628 
950 2628 
951 2628 
952 2628 
953 2628 
954 2628 
955 2628 
956 2628 
957 2628 
958 2628 
959 2628 
960 2628 
961 2628 
962 2628 
963 2628 
964 2628 
965 2628 
966 2628 
967 2628 
968 2628 
969 2628 
970 2628 
971 2628 
972 2628 
973 2628 
974 2628 
975 2628 
976 2628 
977 2628 
978 2628 
979 2628 
980 2628 
981 2628 
982 2628 
983 2628 
984 2628 
985 2628 
986 2628 
987 2628 
988 2628 
989 2628 
990 2628 
991 2628 
992 2628 
993 2628 
994 2628 
995 2628 
996 2628 
997 2628 
998 2628 
999 2628 
1000 2628 
1001 2628 
1002 2628 
1003 2628 
1004 2628 
1005 2628 
1006 2628 
1007 2628 
1008 2628 
1009 2628 
1010 2628 
1011 2628 
1012 2628 
1013 2628 
1014 2628 
1015 2628 
1016 2628 
1017 2628 
1018 2628 
1019 2628 
1020 2628 
1021 2628 
1022 2628 
1023 2628 
1024 2628 
1025 2628 
1026 2628 
1027 2628 
1028 2628 
1029 2628 
1030 2628 
1031 2628 
1032 2628 
1033 2628 
1034 2628 
1035 2628 
1036 2628 
1037 2628 
1038 2628 
1039 2628 
1040 2628 
1041 2628 
1042 2628 
1043 2628 
1044 2628 
1045 2628 
1046 2628 
1047 2628 
1048 2628 
1049 2628 
1050 2628 
1051 2628 
1052 2628 
1053 2628 
1054 2628 
1055 2628 
1056 2628 
1057 2628 
1058 2628 
1059 2628 
1060 2628 
1061 2628 
1062 2628 
1063 2628 
1064 2628 
1065 2628 
1066 2628 
1067 2628 
1068 2628 
1069 2628 
1070 2628 
1071 2628 
1072 2628 
1073 2628 
1074 2628 
1075 2628 
1076 2628 
1077 2628 
1078 2628 
1079 2628 
1080 2628 
1081 2628 
1082 2628 
1083 2628 
1084 2628 
1085 2628 
1086 2628 
1087 2628 
1088 2628 
1089 2628 
1090 2628 
1091 2628 
1092 2628 
1093 2628 
1094 2628 
1095 2628 
1096 2628 
1097 2628 
1098 2628 
1099 2628 
1100 2628 
1101 2628 
1102 2628 
1103 2628 
1104 2628 
1105 2628 
1106 2628 
1107 2628 
1108 2628 
1109 2628 
1110 2628 
1111 2628 
1112 2628 
1113 2628 
1114 2628 
1115 2628 
1116 2628 
1117 2628 
1118 2628 
1119 2628 
1120 2628 
1121 2628 
1122 2628 
1123 2628 
1124 2628 
1125 2628 
1126 2628 
1127 2628 
1128 2628 
1129 2628 
1130 2628 
1131 2628 
1132 2628 
1133 2628 
1134 2628 
1135 2628 
1136 2628 
1137 2628 
1138 2628 
1139 2628 
1140 2628 
1141 2628 
1142 2628 
1143 2628 
1144 2628 
1145 2628 
1146 2628 
1147 2628 
1148 2628 
1149 2628 
1150 2628 
1151 2628 
1152 2628 
1153 2628 
1154 2628 
1155 2628 
1156 2628 
1157 2628 
1158 2628 
1159 2628 
1160 2628 
1161 2628 
1162 2628 
1163 2628 
1164 2628 
1165 2628 
1166 2628 
1167 2628 
1168 2628 
1169 2628 
1170 2628 
1171 2628 
1172 2628 
1173 2628 
1174 2628 
1175 2628 
1176 2628 
1177 2628 
1178 2628 
1179 2628 
1180 2628 
1181 2628 
1182 2628 
1183 2628 
1184 2628 
1185 2628 
1186 2628 
1187 2628 
1188 2628 
1189 2628 
1190 2628 
1191 2628 
1192 2628 
1193 2628 
1194 2628 
1195 2628 
1196 2628 
1197 2628 
1198 2628 
1199 2628 
1200 2628 
1201 2628 
1202 2628 
1203 2628 
1204 2628 
1205 2628 
1206 2628 
1207 2628 
1208 2628 
1209 2628 
1210 2628 
1211 2628 
1212 2628 
1213 2628 
1214 2628 
1215 2628 
1216 2628 
1217 2628 
1218 2628 
1219 2628 
1220 2628 
1221 2628 
1222 2628 
1223 2628 
1224 2628 
1225 2628 
1226 2628 
1227 2628 
1228 2628 
1229 2628 
1230 2628 
1231 2628 
1232 2628 
1233 2628 
1234 2628 
1235 2628 
1236 2628 
1237 2628 
1238 2628 
1239 2628 
1240 2628 
1241 2628 
1242 2628 
1243 2628 
1244 2628 
1245 2628 
1246 2628 
1247 2628 
1248 2628 
1249 2628 
1250 2628 
1251 2628 
1252 2628 
1253 2628 
1254 2628 
1255 2628 
1256 2628 
1257 2628 
1258 2628 
1259 2628 
1260 2628 
1261 2628 
1262 2628 
1263 2628 
1264 2628 
1265 2628 
1266 2628 
1267 2628 
1268 2628 
1269 2628 
1270 2628 
1271 2628 
1272 2628 
1273 2628 
1274 2628 
1275 2628 
1276 2628 
1277 2628 
1278 2628 
1279 2628 
1280 2628 
1281 2628 
1282 2628 
1283 2628 
1284 2628 
1285 2628 
1286 2628 
1287 2628 
1288 2628 
1289 2628 
1290 2628 
1291 2628 
1292 2628 
1293 2628 
1294 2628 
1295 2628 
1296 2628 
1297 2628 
1298 2628 
1299 2628 
1300 2628 
1301 2628 
1302 2628 
1303 2628 
1304 2628 
1305 2628 
1306 2628 
1307 2628 
1308 2628 
1309 2628 
1310 2628 
1311 2628 
1312 2628 
1313 2628 
1314 2628 
1315 2628 
1316 2628 
1317 2628 
1318 2628 
1319 2628 
1320 2628 
1321 2628 
1322 2628 
1323 2628 
1324 2628 
1325 2628 
1326 2628 
1327 2628 
1328 2628 
1329 2628 
1330 2628 
1331 2628 
1332 2628 
1333 2628 
1334 2628 
1335 2628 
1336 2628 
1337 2628 
1338 2628 
1339 2628 
1340 2628 
1341 2628 
1342 2628 
1343 2628 
1344 2628 
1345 2628 
1346 2628 
1347 2628 
1348 2628 
1349 2628 
1350 2628 
1351 2628 
1352 2628 
1353 2628 
1354 2628 
1355 2628 
1356 2628 
1357 2628 
1358 2628 
1359 2628 
1360 2628 
1361 2628 
1362 2628 
1363 2628 
1364 2628 
1365 2628 
1366 2628 
1367 2628 
1368 2628 
1369 2628 
1370 2628 
1371 2628 
1372 2628 
1373 2628 
1374 2628 
1375 2628 
1376 2628 
1377 2628 
1378 2628 
1379 2628 
1380 2628 
1381 2628 
1382 2628 
1383 2628 
1384 2628 
1385 2628 
1386 2628 
1387 2628 
1388 2628 
1389 2628 
1390 2628 
1391 2628 
1392 2628 
1393 2628 
1394 2628 
1395 2628 
1396 2628 
1397 2628 
1398 2628 
1399 2628 
1400 2628 
1401 2628 
1402 2628 
1403 2628 
1404 2628 
1405 2628 
1406 2628 
1407 2628 
1408 2628 
1409 2628 
1410 2628 
1411 2628 
1412 2628 
1413 2628 
1414 2628 
1415 2628 
1416 2628 
1417 2628 
1418 2628 
1419 2628 
1420 2628 
1421 2628 
1422 2628 
1423 2628 
1424 2628 
1425 2628 
1426 2628 
1427 2628 
1428 2628 
1429 2628 
1430 2628 
1431 2628 
1432 2628 
1433 2628 
1434 2628 
1435 2628 
1436 2628 
1437 2628 
1438 2628 
1439 2628 
1440 2628 
1441 2628 
1442 2628 
1443 2628 
1444 2628 
1445 2628 
1446 2628 
1447 2628 
1448 2628 
1449 2628 
1450 2628 
1451 2628 
1452 2628 
1453 2628 
1454 2628 
1455 2628 
1456 2628 
1457 2628 
1458 2628 
1459 2628 
1460 2628 
1461 2628 
1462 2628 
1463 2628 
1464 2628 
1465 2628 
1466 2628 
1467 2628 
1468 2628 
1469 2628 
1470 2628 
1471 2628 
1472 2628 
1473 2628 
1474 2628 
1475 2628 
1476 2628 
1477 2628 
1478 2628 
1479 2628 
1480 2628 
1481 2628 
1482 2628 
1483 2628 
1484 2628 
1485 2628 
1486 2628 
1487 2628 
1488 2628 
1489 2628 
1490 2628 
1491 2628 
1492 2628 
1493 2628 
1494 2628 
1495 2628 
1496 2628 
1497 2628 
1498 2628 
1499 2628 
1500 2628 
1501 2628 
1502 2628 
1503 2628 
1504 2628 
1505 2628 
1506 2628 
1507 2628 
1508 2628 
1509 2628 
1510 2628 
1511 2628 
1512 2628 
1513 2628 
1514 2628 
1515 2628 
1516 2628 
1517 2628 
1518 2628 
1519 2628 
1520 2628 
1521 2628 
1522 2628 
1523 2628 
1524 2628 
1525 2628 
1526 2628 
1527 2628 
1528 2628 
1529 2628 
1530 2628 
1531 2628 
1532 2628 
1533 2628 
1534 2628 
1535 2628 
1536 2628 
1537 2628 
1538 2628 
1539 2628 
1540 2628 
1541 2628 
1542 2628 
1543 2628 
1544 2628 
1545 2628 
1546 2628 
1547 2628 
1548 2628 
1549 2628 
1550 2628 
1551 2628 
1552 2628 
1553 2628 
1554 2628 
1555 2628 
1556 2628 
1557 2628 
1558 2628 
1559 2628 
1560 2628 
1561 2628 
1562 2628 
1563 2628 
1564 2628 
1565 2628 
1566 2628 
1567 2628 
1568 2628 
1569 2628 
1570 2628 
1571 2628 
1572 2628 
1573 2628 
1574 2628 
1575 2628 
1576 2628 
1577 2628 
1578 2628 
1579 2628 
1580 2628 
1581 2628 
1582 2628 
1583 2628 
1584 2628 
1585 2628 
1586 2628 
1587 2628 
1588 2628 
1589 2628 
1590 2628 
1591 2628 
1592 2628 
1593 2628 
1594 2628 
1595 2628 
1596 2628 
1597 2628 
1598 2628 
1599 2628 
1600 2628 
1601 2628 
1602 2628 
1603 2628 
1604 2628 
1605 2628 
1606 2628 
1607 2628 
1608 2628 
1609 2628 
1610 2628 
1611 2628 
1612 2628 
1613 2628 
1614 2628 
1615 2628 
1616 2628 
1617 2628 
1618 2628 
1619 2628 
1620 2628 
1621 2628 
1622 2628 
1623 2628 
1624 2628 
1625 2628 
1626 2628 
1627 2628 
1628 2628 
1629 2628 
1630 2628 
1631 2628 
1632 2628 
1633 2628 
1634 2628 
1635 2628 
1636 2628 
1637 2628 
1638 2628 
1639 2628 
1640 2628 
1641 2628 
1642 2628 
1643 2628 
1644 2628 
1645 2628 
1646 2628 
1647 2628 
1648 2628 
1649 2628 
1650 2628 
1651 2628 
1652 2628 
1653 2628 
1654 2628 
1655 2628 
1656 2628 
1657 2628 
1658 2628 
1659 2628 
1660 2628 
1661 2628 
1662 2628 
1663 2628 
1664 2628 
1665 2628 
1666 2628 
1667 2628 
1668 2628 
1669 2628 
1670 2628 
1671 2628 
1672 2628 
1673 2628 
1674 2628 
1675 2628 
1676 2628 
1677 2628 
1678 2628 
1679 2628 
1680 2628 
1681 2628 
1682 2628 
1683 2628 
1684 2628 
1685 2628 
1686 2628 
1687 2628 
1688 2628 
1689 2628 
1690 2628 
1691 2628 
1692 2628 
1693 2628 
1694 2628 
1695 2628 
1696 2628 
1697 2628 
1698 2628 
1699 2628 
1700 2628 
1701 2628 
1702 2628 
1703 2628 
1704 2628 
1705 2628 
1706 2628 
1707 2628 
1708 2628 
1709 2628 
1710 2628 
1711 2628 
1712 2628 
1713 2628 
1714 2628 
1715 2628 
1716 2628 
1717 2628 
1718 2628 
1719 2628 
1720 2628 
1721 2628 
1722 2628 
1723 2628 
1724 2628 
1725 2628 
1726 2628 
1727 2628 
1728 2628 
1729 2628 
1730 2628 
1731 2628 
1732 2628 
1733 2628 
1734 2628 
1735 2628 
1736 2628 
1737 2628 
1738 2628 
1739 2628 
1740 2628 
1741 2628 
1742 2628 
1743 2628 
1744 2628 
1745 2628 
1746 2628 
1747 2628 
1748 2628 
1749 2628 
1750 2628 
1751 2628 
1752 2628 
1753 2628 
1754 2628 
1755 2628 
1756 2628 
1757 2628 
1758 2628 
1759 2628 
1760 2628 
1761 2628 
1762 2628 
1763 2628 
1764 2628 
1765 2628 
1766 2628 
1767 2628 
1768 2628 
1769 2628 
1770 2628 
1771 2628 
1772 2628 
1773 2628 
1774 2628 
1775 2628 
1776 2628 
1777 2628 
1778 2628 
1779 2628 
1780 2628 
1781 2628 
1782 2628 
1783 2628 
1784 2628 
1785 2628 
1786 2628 
1787 2628 
1788 2628 
1789 2628 
1790 2628 
1791 2628 
1792 2628 
1793 2628 
1794 2628 
1795 2628 
1796 2628 
1797 2628 
1798 2628 
1799 2628 
1800 2628 
1801 2628 
1802 2628 
1803 2628 
1804 2628 
1805 2628 
1806 2628 
1807 2628 
1808 2628 
1809 2628 
1810 2628 
1811 2628 
1812 2628 
1813 2628 
1814 2628 
1815 2628 
1816 2628 
1817 2628 
1818 2628 
1819 2628 
1820 2628 
1821 2628 
1822 2628 
1823 2628 
1824 2628 
1825 2628 
1826 2628 
1827 2628 
1828 2628 
1829 2628 
1830 2628 
1831 2628 
1832 2628 
1833 2628 
1834 2628 
1835 2628 
1836 2628 
1837 2628 
1838 2628 
1839 2628 
1840 2628 
1841 2628 
1842 2628 
1843 2628 
1844 2628 
1845 2628 
1846 2628 
1847 2628 
1848 2628 
1849 2628 
1850 2628 
1851 2628 
1852 2628 
1853 2628 
1854 2628 
1855 2628 
1856 2628 
1857 2628 
1858 2628 
1859 2628 
1860 2628 
1861 2628 
1862 2628 
1863 2628 
1864 2628 
1865 2628 
1866 2628 
1867 2628 
1868 2628 
1869 2628 
1870 2628 
1871 2628 
1872 2628 
1873 2628 
1874 2628 
1875 2628 
1876 2628 
1877 2628 
1878 2628 
1879 2628 
1880 2628 
1881 2628 
1882 2628 
1883 2628 
1884 2628 
1885 2628 
1886 2628 
1887 2628 
1888 2628 
1889 2628 
1890 2628 
1891 2628 
1892 2628 
1893 2628 
1894 2628 
1895 2628 
1896 2628 
1897 2628 
1898 2628 
1899 2628 
1900 2628 
1901 2628 
1902 2628 
1903 2628 
1904 2628 
1905 2628 
1906 2628 
1907 2628 
1908 2628 
1909 2628 
1910 2628 
1911 2628 
1912 2628 
1913 2628 
1914 2628 
1915 2628 
1916 2628 
1917 2628 
1918 2628 
1919 2628 
1920 2628 
1921 2628 
1922 2628 
1923 2628 
1924 2628 
1925 2628 
1926 2628 
1927 2628 
1928 2628 
1929 2628 
1930 2628 
1931 2628 
1932 2628 
1933 2628 
1934 2628 
1935 2628 
1936 2628 
1937 2628 
1938 2628 
1939 2628 
1940 2628 
1941 2628 
1942 2628 
1943 2628 
1944 2628 
1945 2628 
1946 2628 
1947 2628 
1948 2628 
1949 2628 
1950 2628 
1951 2628 
1952 2628 
1953 2628 
1954 2628 
1955 2628 
1956 2628 
1957 2628 
1958 2628 
1959 2628 
1960 2628 
1961 2628 
1962 2628 
1963 2628 
1964 2628 
1965 2628 
1966 2628 
1967 2628 
1968 2628 
1969 2628 
1970 2628 
1971 2628 
1972 2628 
1973 2628 
1974 2628 
1975 2628 
1976 2628 
1977 2628 
1978 2628 
1979 2628 
1980 2628 
1981 2628 
1982 2628 
1983 2628 
1984 2628 
1985 2628 
1986 2628 
1987 2628 
1988 2628 
1989 2628 
1990 2628 
1991 2628 
1992 2628 
1993 2628 
1994 2628 
1995 2628 
1996 2628 
1997 2628 
1998 2628 
1999 2628 
2000 2628 
2001 2628 
2002 2628 
2003 2628 
2004 2628 
2005 2628 
2006 2628 
2007 2628 
2008 2628 
2009 2628 
2010 2628 
2011 2628 
2012 2628 
2013 2628 
2014 2628 
2015 2628 
2016 2628 
2017 2628 
2018 2628 
2019 2628 
2020 2628 
2021 2628 
2022 2628 
2023 2628 
2024 2628 
2025 2628 
2026 2628 
2027 2628 
2028 2628 
2029 2628 
2030 2628 
2031 2628 
2032 2628 
2033 2628 
2034 2628 
2035 2628 
2036 2628 
2037 2628 
2038 2628 
2039 2628 
2040 2628 
2041 2628 
2042 2628 
2043 2628 
2044 2628 
2045 2628 
2046 2628 
2047 2628 
2048 2628 
2049 2628 
2050 2628 
2051 2628 
2052 2628 
2053 2628 
2054 2628 
2055 2628 
2056 2628 
2057 2628 
2058 2628 
2059 2628 
2060 2628 
2061 2628 
2062 2628 
2063 2628 
2064 2628 
2065 2628 
2066 2628 
2067 2628 
2068 2628 
2069 2628 
2070 2628 
2071 2628 
2072 2628 

